Route #1: 53 28 56 23 75 41 22 74 21 72 26 40
Route #2: 55 25 67 39 4 73 2 57 15 43 87 97 92 59 99
Route #3: 60 5 84 17 83 18 46 8 48 82 47 19 49
Route #4: 52 31 70 30 64 11 62 10 88 7 45 96 6 89
Route #5: 94 13 58 93 98 37 100 91 44 14
Route #6: 85 61 16 86 71 35 78 34 38 32 90 63
Route #7: 68 24 54 80 12 77 3 79 33 65 50 1 69
Route #8: 76 29 81 9 66 20 51 27 36 42 95
Cost 1168
